c generated by sgen
p cnf 113 236
-2 -3 -4 0
-1 -3 -4 0
-1 -2 -4 0
-1 -2 -3 0
-6 -7 -8 0
-5 -7 -8 0
-5 -6 -8 0
-5 -6 -7 0
-10 -11 -12 0
-9 -11 -12 0
-9 -10 -12 0
-9 -10 -11 0
-14 -15 -16 0
-13 -15 -16 0
-13 -14 -16 0
-13 -14 -15 0
-18 -19 -20 0
-17 -19 -20 0
-17 -18 -20 0
-17 -18 -19 0
-22 -23 -24 0
-21 -23 -24 0
-21 -22 -24 0
-21 -22 -23 0
-26 -27 -28 0
-25 -27 -28 0
-25 -26 -28 0
-25 -26 -27 0
-30 -31 -32 0
-29 -31 -32 0
-29 -30 -32 0
-29 -30 -31 0
-34 -35 -36 0
-33 -35 -36 0
-33 -34 -36 0
-33 -34 -35 0
-38 -39 -40 0
-37 -39 -40 0
-37 -38 -40 0
-37 -38 -39 0
-42 -43 -44 0
-41 -43 -44 0
-41 -42 -44 0
-41 -42 -43 0
-46 -47 -48 0
-45 -47 -48 0
-45 -46 -48 0
-45 -46 -47 0
-50 -51 -52 0
-49 -51 -52 0
-49 -50 -52 0
-49 -50 -51 0
-54 -55 -56 0
-53 -55 -56 0
-53 -54 -56 0
-53 -54 -55 0
-58 -59 -60 0
-57 -59 -60 0
-57 -58 -60 0
-57 -58 -59 0
-62 -63 -64 0
-61 -63 -64 0
-61 -62 -64 0
-61 -62 -63 0
-66 -67 -68 0
-65 -67 -68 0
-65 -66 -68 0
-65 -66 -67 0
-70 -71 -72 0
-69 -71 -72 0
-69 -70 -72 0
-69 -70 -71 0
-74 -75 -76 0
-73 -75 -76 0
-73 -74 -76 0
-73 -74 -75 0
-78 -79 -80 0
-77 -79 -80 0
-77 -78 -80 0
-77 -78 -79 0
-82 -83 -84 0
-81 -83 -84 0
-81 -82 -84 0
-81 -82 -83 0
-86 -87 -88 0
-85 -87 -88 0
-85 -86 -88 0
-85 -86 -87 0
-90 -91 -92 0
-89 -91 -92 0
-89 -90 -92 0
-89 -90 -91 0
-94 -95 -96 0
-93 -95 -96 0
-93 -94 -96 0
-93 -94 -95 0
-98 -99 -100 0
-97 -99 -100 0
-97 -98 -100 0
-97 -98 -99 0
-102 -103 -104 0
-101 -103 -104 0
-101 -102 -104 0
-101 -102 -103 0
-106 -107 -108 0
-105 -107 -108 0
-105 -106 -108 0
-105 -106 -107 0
-109 -110 -111 0
-109 -110 -112 0
-109 -110 -113 0
-109 -111 -112 0
-109 -111 -113 0
-109 -112 -113 0
-110 -111 -112 0
-110 -111 -113 0
-110 -112 -113 0
-111 -112 -113 0
101 53 10 0
18 53 10 0
18 101 10 0
18 101 53 0
70 22 14 0
43 22 14 0
43 70 14 0
43 70 22 0
78 13 29 0
90 13 29 0
90 78 29 0
90 78 13 0
27 4 6 0
56 4 6 0
56 27 6 0
56 27 4 0
111 65 51 0
80 65 51 0
80 111 51 0
80 111 65 0
42 102 49 0
38 102 49 0
38 42 49 0
38 42 102 0
57 74 36 0
3 74 36 0
3 57 36 0
3 57 74 0
28 79 40 0
85 79 40 0
85 28 40 0
85 28 79 0
66 15 37 0
45 15 37 0
45 66 37 0
45 66 15 0
72 33 107 0
87 33 107 0
87 72 107 0
87 72 33 0
99 12 16 0
112 12 16 0
112 99 16 0
112 99 12 0
62 26 32 0
20 26 32 0
20 62 32 0
20 62 26 0
93 44 67 0
30 44 67 0
30 93 67 0
30 93 44 0
71 75 52 0
11 75 52 0
11 71 52 0
11 71 75 0
8 95 104 0
88 95 104 0
88 8 104 0
88 8 95 0
100 5 113 0
46 5 113 0
46 100 113 0
46 100 5 0
41 35 48 0
92 35 48 0
92 41 48 0
92 41 35 0
81 17 69 0
108 17 69 0
108 81 69 0
108 81 17 0
19 77 98 0
60 77 98 0
60 19 98 0
60 19 77 0
82 47 103 0
61 47 103 0
61 82 103 0
61 82 47 0
94 97 50 0
1 97 50 0
1 94 50 0
1 94 97 0
110 106 25 0
76 106 25 0
76 110 25 0
76 110 106 0
59 55 39 0
23 55 39 0
23 59 39 0
23 59 55 0
34 24 31 0
109 24 31 0
109 34 31 0
109 34 24 0
58 84 89 0
96 84 89 0
96 58 89 0
96 58 84 0
21 91 7 0
105 91 7 0
105 21 7 0
105 21 91 0
9 63 68 0
2 63 68 0
2 9 68 0
2 9 63 0
54 64 73 0
54 64 83 0
54 64 86 0
54 73 83 0
54 73 86 0
54 83 86 0
64 73 83 0
64 73 86 0
64 83 86 0
73 83 86 0
